nN = 10;
nR = 50;
nH = 2;

a = [[10, 25, 22, 21, 24, 20, 17, 21, 13, 23, 16, 20, 16, 16, 17, 20, 19, 24, 21, 16, 13, 20, 15, 10, 11, 17, 18, 24, 11, 20, 17, 22, 11, 15, 22, 22, 19, 15, 15, 24, 11, 20, 16, 17, 20, 13, 24, 19, 20, 24], [10, 17, 16, 21, 16, 24, 13, 18, 14, 12, 18, 18, 15, 24, 24, 15, 12, 12, 11, 11, 13, 14, 14, 15, 12, 13, 10, 11, 19, 22, 13, 21, 24, 21, 15, 24, 16, 25, 23, 13, 21, 12, 13, 16, 18, 20, 23, 18, 19, 18], [23, 25, 12, 24, 16, 24, 16, 14, 11, 23, 14, 15, 13, 23, 17, 12, 13, 18, 16, 16, 10, 15, 11, 21, 13, 14, 12, 18, 24, 25, 21, 22, 18, 12, 15, 14, 13, 15, 21, 15, 12, 10, 13, 24, 25, 19, 17, 11, 21, 10], [23, 10, 10, 14, 25, 13, 13, 11, 19, 13, 24, 13, 19, 19, 20, 18, 15, 11, 10, 13, 25, 12, 18, 24, 11, 17, 18, 22, 19, 11, 21, 23, 25, 22, 15, 22, 21, 11, 17, 16, 21, 24, 11, 15, 14, 11, 14, 11, 23, 17], [11, 18, 14, 13, 20, 17, 14, 21, 18, 15, 12, 11, 13, 15, 11, 23, 15, 17, 24, 17, 20, 15, 19, 14, 16, 13, 15, 19, 16, 21, 11, 13, 14, 11, 19, 17, 21, 11, 18, 15, 11, 20, 14, 17, 14, 20, 16, 18, 11, 21], [17, 10, 22, 24, 12, 14, 10, 21, 15, 25, 17, 15, 15, 14, 13, 16, 13, 19, 12, 21, 20, 15, 12, 22, 20, 22, 10, 16, 24, 24, 15, 12, 24, 14, 18, 23, 19, 23, 20, 13, 13, 22, 11, 18, 25, 15, 24, 18, 10, 19], [12, 25, 20, 21, 22, 24, 12, 22, 14, 15, 15, 12, 17, 17, 11, 23, 14, 23, 14, 13, 20, 22, 11, 21, 19, 12, 18, 24, 16, 11, 22, 15, 11, 14, 16, 18, 17, 22, 16, 22, 19, 17, 10, 19, 12, 21, 13, 18, 22, 23], [11, 18, 14, 23, 18, 11, 15, 19, 17, 12, 18, 19, 25, 24, 14, 17, 21, 20, 21, 13, 20, 11, 21, 17, 18, 12, 15, 17, 15, 11, 18, 18, 16, 14, 18, 24, 15, 19, 16, 24, 13, 23, 17, 13, 12, 15, 18, 21, 13, 18], [16, 24, 19, 17, 25, 22, 24, 15, 21, 12, 15, 13, 14, 22, 11, 24, 17, 20, 13, 13, 13, 17, 18, 17, 14, 24, 23, 22, 16, 14, 18, 14, 17, 20, 11, 21, 18, 17, 24, 12, 10, 19, 16, 17, 11, 19, 24, 17, 20, 23], [13, 23, 21, 23, 24, 16, 15, 15, 17, 19, 22, 21, 21, 24, 14, 10, 18, 11, 24, 16, 15, 19, 18, 15, 15, 20, 11, 24, 20, 23, 17, 10, 10, 12, 18, 22, 25, 19, 22, 16, 12, 11, 17, 12, 19, 24, 20, 17, 22, 23]];
c = [[[0, 0, 0, 0, 0, 0, 0, 0, 0, 0, 0, 0, 0, 0, 0, 0, 0, 0, 0, 0, 0, 0, 0, 0, 0, 0, 0, 0, 0, 0, 0, 0, 0, 0, 0, 0, 0, 0, 0, 0, 0, 0, 0, 0, 0, 0, 0, 0, 0, 0], [39, 45, 34, 42, 36, 43, 50, 31, 33, 33, 45, 38, 49, 41, 45, 36, 31, 36, 48, 50, 33, 46, 48, 39, 41, 44, 42, 39, 46, 30, 33, 31, 42, 38, 42, 36, 45, 38, 33, 47, 48, 49, 39, 47, 46, 38, 41, 44, 36, 48], [43, 46, 37, 49, 42, 47, 44, 36, 41, 43, 31, 41, 39, 37, 48, 43, 40, 37, 39, 44, 35, 41, 46, 47, 45, 46, 32, 47, 42, 32, 38, 30, 50, 37, 50, 36, 30, 49, 33, 50, 37, 42, 39, 37, 33, 39, 30, 47, 34, 48], [43, 41, 46, 30, 48, 48, 47, 41, 34, 40, 31, 49, 38, 50, 41, 39, 49, 47, 50, 33, 50, 34, 49, 47, 44, 49, 38, 37, 37, 44, 50, 45, 43, 45, 33, 31, 35, 39, 41, 41, 42, 32, 42, 43, 48, 30, 38, 36, 31, 37], [50, 46, 39, 45, 48, 43, 47, 45, 32, 40, 36, 43, 39, 42, 34, 32, 33, 37, 39, 45, 43, 47, 47, 46, 44, 38, 37, 50, 44, 40, 32, 48, 45, 39, 32, 47, 48, 47, 49, 34, 49, 40, 35, 46, 35, 39, 30, 45, 30, 39], [30, 34, 39, 42, 39, 45, 44, 35, 43, 48, 36, 37, 41, 30, 36, 32, 47, 49, 38, 34, 32, 49, 31, 38, 39, 50, 30, 35, 45, 35, 35, 33, 34, 30, 33, 35, 40, 48, 49, 43, 43, 47, 39, 30, 31, 45, 39, 50, 35, 34], [39, 37, 32, 31, 44, 38, 46, 37, 49, 46, 38, 36, 44, 48, 50, 45, 44, 39, 35, 42, 33, 43, 43, 44, 31, 36, 30, 40, 38, 36, 30, 33, 35, 32, 36, 45, 45, 44, 31, 46, 44, 50, 42, 38, 44, 45, 31, 45, 30, 49], [42, 47, 35, 31, 45, 43, 39, 45, 37, 40, 34, 33, 35, 48, 34, 31, 39, 47, 35, 31, 45, 37, 31, 42, 33, 48, 48, 42, 39, 42, 34, 43, 50, 44, 33, 44, 38, 42, 31, 36, 45, 42, 34, 45, 39, 30, 50, 42, 48, 42], [49, 36, 34, 37, 37, 42, 32, 43, 34, 33, 35, 48, 34, 46, 42, 37, 30, 33, 49, 33, 44, 38, 39, 36, 39, 40, 44, 35, 46, 34, 48, 41, 33, 34, 46, 42, 37, 36, 42, 48, 33, 37, 31, 49, 42, 48, 50, 41, 44, 44], [35, 39, 48, 37, 40, 34, 35, 30, 48, 33, 31, 32, 49, 47, 39, 31, 43, 40, 41, 50, 48, 42, 37, 45, 33, 38, 37, 42, 36, 42, 39, 39, 42, 37, 38, 35, 36, 33, 41, 43, 34, 31, 42, 32, 43, 50, 44, 33, 34, 50]], [[0, 0, 0, 0, 0, 0, 0, 0, 0, 0, 0, 0, 0, 0, 0, 0, 0, 0, 0, 0, 0, 0, 0, 0, 0, 0, 0, 0, 0, 0, 0, 0, 0, 0, 0, 0, 0, 0, 0, 0, 0, 0, 0, 0, 0, 0, 0, 0, 0, 0], [0, 0, 0, 0, 0, 0, 0, 0, 0, 0, 0, 0, 0, 0, 0, 0, 0, 0, 0, 0, 0, 0, 0, 0, 0, 0, 0, 0, 0, 0, 0, 0, 0, 0, 0, 0, 0, 0, 0, 0, 0, 0, 0, 0, 0, 0, 0, 0, 0, 0], [38, 34, 49, 40, 43, 37, 42, 43, 32, 32, 30, 41, 38, 48, 34, 46, 31, 33, 39, 46, 44, 34, 50, 47, 48, 49, 31, 41, 32, 43, 36, 30, 39, 30, 44, 39, 49, 36, 47, 36, 42, 47, 33, 34, 40, 46, 44, 49, 44, 47], [37, 45, 49, 37, 49, 30, 33, 31, 37, 37, 47, 49, 33, 33, 37, 38, 35, 43, 44, 40, 46, 40, 44, 46, 50, 47, 35, 35, 33, 37, 48, 46, 36, 32, 50, 34, 46, 39, 46, 49, 44, 44, 34, 31, 30, 38, 43, 43, 30, 41], [46, 37, 36, 42, 39, 39, 36, 50, 37, 46, 36, 36, 42, 39, 48, 47, 43, 39, 49, 42, 49, 37, 43, 42, 36, 30, 32, 30, 43, 46, 45, 44, 32, 50, 34, 39, 35, 32, 50, 32, 50, 50, 45, 42, 43, 46, 38, 40, 32, 50], [36, 30, 50, 44, 47, 48, 36, 34, 33, 36, 40, 35, 36, 50, 41, 46, 37, 39, 36, 48, 38, 50, 48, 48, 50, 38, 31, 38, 39, 44, 30, 42, 42, 48, 44, 41, 47, 41, 34, 36, 48, 37, 44, 45, 39, 41, 30, 39, 30, 38], [33, 38, 46, 30, 30, 39, 31, 42, 34, 44, 37, 43, 48, 47, 36, 38, 35, 46, 35, 36, 36, 49, 40, 38, 34, 42, 31, 48, 37, 49, 38, 40, 47, 46, 43, 50, 31, 32, 44, 43, 46, 40, 31, 49, 31, 34, 38, 34, 32, 35], [47, 50, 33, 47, 36, 30, 34, 40, 42, 47, 45, 31, 40, 34, 36, 36, 43, 43, 47, 44, 35, 43, 50, 39, 49, 44, 35, 34, 49, 49, 31, 33, 45, 40, 44, 33, 44, 30, 33, 48, 35, 31, 34, 42, 32, 44, 41, 39, 48, 37], [33, 49, 43, 44, 39, 44, 50, 30, 36, 37, 35, 30, 41, 46, 38, 30, 32, 50, 49, 42, 35, 36, 45, 42, 44, 50, 30, 35, 31, 36, 40, 43, 34, 33, 50, 44, 43, 35, 39, 31, 38, 46, 40, 44, 47, 49, 38, 45, 41, 37], [32, 31, 39, 44, 33, 45, 38, 42, 33, 32, 40, 33, 33, 47, 46, 37, 37, 48, 48, 38, 32, 37, 44, 40, 36, 35, 41, 40, 30, 42, 37, 38, 50, 49, 44, 41, 34, 43, 31, 37, 35, 41, 35, 48, 45, 30, 40, 39, 38, 32]], [[0, 0, 0, 0, 0, 0, 0, 0, 0, 0, 0, 0, 0, 0, 0, 0, 0, 0, 0, 0, 0, 0, 0, 0, 0, 0, 0, 0, 0, 0, 0, 0, 0, 0, 0, 0, 0, 0, 0, 0, 0, 0, 0, 0, 0, 0, 0, 0, 0, 0], [0, 0, 0, 0, 0, 0, 0, 0, 0, 0, 0, 0, 0, 0, 0, 0, 0, 0, 0, 0, 0, 0, 0, 0, 0, 0, 0, 0, 0, 0, 0, 0, 0, 0, 0, 0, 0, 0, 0, 0, 0, 0, 0, 0, 0, 0, 0, 0, 0, 0], [0, 0, 0, 0, 0, 0, 0, 0, 0, 0, 0, 0, 0, 0, 0, 0, 0, 0, 0, 0, 0, 0, 0, 0, 0, 0, 0, 0, 0, 0, 0, 0, 0, 0, 0, 0, 0, 0, 0, 0, 0, 0, 0, 0, 0, 0, 0, 0, 0, 0], [34, 32, 32, 34, 49, 42, 47, 46, 48, 43, 37, 41, 47, 41, 48, 35, 31, 44, 47, 38, 39, 36, 49, 31, 36, 32, 47, 44, 39, 34, 44, 49, 49, 30, 48, 30, 32, 40, 39, 50, 47, 45, 48, 43, 50, 38, 35, 43, 40, 38], [49, 39, 34, 36, 48, 44, 37, 41, 32, 39, 30, 46, 41, 34, 42, 48, 37, 44, 47, 43, 32, 38, 45, 34, 34, 42, 45, 37, 32, 35, 37, 48, 48, 31, 38, 44, 38, 32, 40, 34, 37, 50, 37, 32, 44, 30, 39, 38, 32, 48], [38, 32, 43, 36, 49, 50, 49, 37, 50, 32, 46, 45, 48, 37, 49, 40, 42, 30, 32, 35, 50, 41, 31, 39, 34, 45, 50, 41, 33, 47, 36, 48, 35, 44, 49, 40, 46, 31, 46, 39, 44, 33, 48, 37, 40, 50, 39, 38, 46, 42], [44, 38, 37, 45, 40, 50, 48, 36, 30, 41, 44, 41, 33, 30, 40, 50, 49, 33, 50, 45, 50, 47, 42, 30, 35, 40, 39, 33, 34, 35, 50, 37, 48, 31, 43, 45, 33, 34, 48, 50, 31, 43, 42, 36, 34, 34, 44, 39, 45, 50], [42, 37, 39, 37, 37, 36, 46, 46, 30, 44, 36, 34, 50, 42, 35, 33, 39, 31, 31, 30, 32, 41, 50, 41, 45, 34, 32, 42, 41, 35, 30, 49, 47, 34, 32, 36, 33, 40, 49, 41, 36, 45, 41, 41, 30, 31, 35, 36, 40, 31], [48, 31, 39, 33, 31, 45, 49, 48, 34, 37, 42, 49, 41, 33, 37, 42, 31, 30, 47, 33, 38, 40, 46, 35, 33, 31, 44, 50, 34, 44, 33, 41, 40, 44, 35, 48, 48, 31, 47, 41, 42, 32, 46, 38, 45, 31, 38, 50, 40, 35], [41, 37, 34, 32, 33, 42, 39, 44, 49, 42, 31, 44, 50, 46, 35, 31, 48, 44, 36, 48, 42, 40, 42, 50, 47, 43, 31, 43, 31, 39, 44, 49, 45, 42, 48, 44, 40, 32, 30, 35, 50, 50, 44, 36, 50, 42, 43, 40, 44, 48]], [[0, 0, 0, 0, 0, 0, 0, 0, 0, 0, 0, 0, 0, 0, 0, 0, 0, 0, 0, 0, 0, 0, 0, 0, 0, 0, 0, 0, 0, 0, 0, 0, 0, 0, 0, 0, 0, 0, 0, 0, 0, 0, 0, 0, 0, 0, 0, 0, 0, 0], [0, 0, 0, 0, 0, 0, 0, 0, 0, 0, 0, 0, 0, 0, 0, 0, 0, 0, 0, 0, 0, 0, 0, 0, 0, 0, 0, 0, 0, 0, 0, 0, 0, 0, 0, 0, 0, 0, 0, 0, 0, 0, 0, 0, 0, 0, 0, 0, 0, 0], [0, 0, 0, 0, 0, 0, 0, 0, 0, 0, 0, 0, 0, 0, 0, 0, 0, 0, 0, 0, 0, 0, 0, 0, 0, 0, 0, 0, 0, 0, 0, 0, 0, 0, 0, 0, 0, 0, 0, 0, 0, 0, 0, 0, 0, 0, 0, 0, 0, 0], [0, 0, 0, 0, 0, 0, 0, 0, 0, 0, 0, 0, 0, 0, 0, 0, 0, 0, 0, 0, 0, 0, 0, 0, 0, 0, 0, 0, 0, 0, 0, 0, 0, 0, 0, 0, 0, 0, 0, 0, 0, 0, 0, 0, 0, 0, 0, 0, 0, 0], [38, 43, 44, 45, 30, 49, 32, 47, 38, 32, 43, 37, 33, 49, 31, 48, 49, 36, 45, 40, 42, 30, 49, 31, 45, 36, 44, 31, 46, 31, 49, 43, 31, 49, 31, 34, 36, 40, 40, 34, 48, 50, 47, 38, 40, 37, 34, 34, 34, 48], [37, 31, 43, 46, 39, 38, 31, 46, 39, 45, 50, 40, 30, 47, 50, 38, 30, 35, 31, 31, 33, 47, 33, 44, 47, 35, 50, 45, 49, 47, 30, 44, 34, 46, 47, 38, 35, 47, 45, 30, 41, 30, 50, 46, 35, 39, 37, 33, 35, 45], [47, 50, 45, 43, 40, 46, 42, 32, 47, 41, 48, 30, 39, 49, 33, 30, 38, 40, 36, 33, 36, 45, 40, 45, 39, 32, 48, 45, 49, 44, 46, 38, 40, 46, 48, 43, 40, 41, 42, 39, 31, 43, 38, 46, 44, 36, 30, 32, 46, 44], [48, 45, 33, 49, 40, 46, 45, 36, 49, 49, 39, 41, 50, 42, 39, 48, 44, 48, 40, 44, 36, 30, 43, 34, 38, 34, 35, 46, 38, 31, 30, 34, 45, 49, 48, 40, 39, 37, 48, 48, 44, 34, 50, 35, 46, 33, 37, 32, 33, 45], [33, 38, 49, 31, 34, 46, 47, 42, 30, 50, 43, 36, 31, 32, 40, 36, 38, 38, 38, 45, 42, 30, 48, 50, 46, 36, 40, 30, 31, 41, 46, 32, 41, 40, 36, 31, 45, 39, 34, 31, 44, 50, 48, 50, 31, 50, 34, 46, 44, 39], [43, 35, 30, 44, 47, 37, 45, 38, 33, 43, 46, 48, 38, 30, 44, 47, 46, 34, 30, 34, 35, 31, 50, 33, 38, 39, 48, 35, 48, 38, 31, 40, 50, 33, 37, 36, 39, 36, 31, 46, 46, 33, 40, 48, 32, 44, 50, 43, 49, 39]], [[0, 0, 0, 0, 0, 0, 0, 0, 0, 0, 0, 0, 0, 0, 0, 0, 0, 0, 0, 0, 0, 0, 0, 0, 0, 0, 0, 0, 0, 0, 0, 0, 0, 0, 0, 0, 0, 0, 0, 0, 0, 0, 0, 0, 0, 0, 0, 0, 0, 0], [0, 0, 0, 0, 0, 0, 0, 0, 0, 0, 0, 0, 0, 0, 0, 0, 0, 0, 0, 0, 0, 0, 0, 0, 0, 0, 0, 0, 0, 0, 0, 0, 0, 0, 0, 0, 0, 0, 0, 0, 0, 0, 0, 0, 0, 0, 0, 0, 0, 0], [0, 0, 0, 0, 0, 0, 0, 0, 0, 0, 0, 0, 0, 0, 0, 0, 0, 0, 0, 0, 0, 0, 0, 0, 0, 0, 0, 0, 0, 0, 0, 0, 0, 0, 0, 0, 0, 0, 0, 0, 0, 0, 0, 0, 0, 0, 0, 0, 0, 0], [0, 0, 0, 0, 0, 0, 0, 0, 0, 0, 0, 0, 0, 0, 0, 0, 0, 0, 0, 0, 0, 0, 0, 0, 0, 0, 0, 0, 0, 0, 0, 0, 0, 0, 0, 0, 0, 0, 0, 0, 0, 0, 0, 0, 0, 0, 0, 0, 0, 0], [0, 0, 0, 0, 0, 0, 0, 0, 0, 0, 0, 0, 0, 0, 0, 0, 0, 0, 0, 0, 0, 0, 0, 0, 0, 0, 0, 0, 0, 0, 0, 0, 0, 0, 0, 0, 0, 0, 0, 0, 0, 0, 0, 0, 0, 0, 0, 0, 0, 0], [34, 44, 46, 47, 48, 40, 36, 45, 35, 43, 34, 38, 41, 45, 42, 50, 38, 33, 47, 35, 47, 48, 35, 38, 31, 39, 48, 50, 30, 46, 43, 42, 37, 45, 46, 38, 42, 40, 31, 49, 36, 50, 45, 35, 47, 44, 39, 38, 30, 45], [49, 43, 45, 39, 30, 48, 39, 35, 38, 33, 48, 46, 33, 37, 42, 33, 32, 36, 39, 40, 31, 36, 47, 32, 43, 48, 30, 44, 45, 46, 35, 40, 50, 38, 49, 41, 30, 43, 48, 43, 39, 38, 31, 47, 33, 48, 48, 40, 49, 37], [34, 32, 37, 43, 35, 50, 31, 39, 43, 49, 40, 41, 45, 39, 46, 36, 39, 31, 32, 38, 50, 47, 46, 49, 34, 31, 35, 38, 49, 47, 31, 44, 31, 39, 41, 36, 30, 48, 31, 40, 39, 34, 40, 31, 42, 44, 39, 31, 44, 36], [40, 42, 36, 43, 33, 41, 42, 38, 43, 43, 38, 50, 49, 45, 43, 39, 33, 33, 40, 33, 30, 39, 43, 42, 33, 33, 43, 35, 43, 32, 42, 34, 46, 38, 50, 50, 35, 50, 31, 36, 43, 33, 37, 37, 39, 42, 42, 40, 32, 39], [42, 43, 47, 48, 32, 32, 44, 45, 46, 40, 47, 33, 40, 49, 33, 34, 30, 35, 44, 45, 48, 49, 43, 32, 44, 39, 45, 46, 40, 33, 34, 43, 32, 43, 39, 36, 46, 46, 47, 43, 33, 42, 43, 42, 39, 49, 48, 47, 43, 44]], [[0, 0, 0, 0, 0, 0, 0, 0, 0, 0, 0, 0, 0, 0, 0, 0, 0, 0, 0, 0, 0, 0, 0, 0, 0, 0, 0, 0, 0, 0, 0, 0, 0, 0, 0, 0, 0, 0, 0, 0, 0, 0, 0, 0, 0, 0, 0, 0, 0, 0], [0, 0, 0, 0, 0, 0, 0, 0, 0, 0, 0, 0, 0, 0, 0, 0, 0, 0, 0, 0, 0, 0, 0, 0, 0, 0, 0, 0, 0, 0, 0, 0, 0, 0, 0, 0, 0, 0, 0, 0, 0, 0, 0, 0, 0, 0, 0, 0, 0, 0], [0, 0, 0, 0, 0, 0, 0, 0, 0, 0, 0, 0, 0, 0, 0, 0, 0, 0, 0, 0, 0, 0, 0, 0, 0, 0, 0, 0, 0, 0, 0, 0, 0, 0, 0, 0, 0, 0, 0, 0, 0, 0, 0, 0, 0, 0, 0, 0, 0, 0], [0, 0, 0, 0, 0, 0, 0, 0, 0, 0, 0, 0, 0, 0, 0, 0, 0, 0, 0, 0, 0, 0, 0, 0, 0, 0, 0, 0, 0, 0, 0, 0, 0, 0, 0, 0, 0, 0, 0, 0, 0, 0, 0, 0, 0, 0, 0, 0, 0, 0], [0, 0, 0, 0, 0, 0, 0, 0, 0, 0, 0, 0, 0, 0, 0, 0, 0, 0, 0, 0, 0, 0, 0, 0, 0, 0, 0, 0, 0, 0, 0, 0, 0, 0, 0, 0, 0, 0, 0, 0, 0, 0, 0, 0, 0, 0, 0, 0, 0, 0], [0, 0, 0, 0, 0, 0, 0, 0, 0, 0, 0, 0, 0, 0, 0, 0, 0, 0, 0, 0, 0, 0, 0, 0, 0, 0, 0, 0, 0, 0, 0, 0, 0, 0, 0, 0, 0, 0, 0, 0, 0, 0, 0, 0, 0, 0, 0, 0, 0, 0], [34, 31, 43, 45, 32, 41, 35, 32, 41, 42, 44, 44, 36, 50, 34, 33, 34, 38, 30, 44, 35, 33, 43, 48, 46, 35, 38, 31, 46, 50, 32, 45, 40, 39, 40, 47, 37, 47, 46, 44, 38, 35, 33, 39, 32, 50, 36, 33, 32, 48], [32, 49, 47, 47, 44, 42, 45, 50, 43, 43, 32, 33, 38, 32, 49, 49, 48, 33, 38, 43, 37, 48, 40, 45, 42, 39, 36, 50, 31, 41, 38, 35, 41, 35, 41, 34, 36, 46, 36, 31, 50, 43, 46, 45, 47, 39, 50, 48, 39, 31], [50, 47, 49, 47, 37, 37, 40, 31, 50, 32, 42, 33, 43, 41, 38, 30, 38, 37, 41, 31, 36, 49, 32, 33, 34, 46, 30, 32, 36, 42, 47, 39, 40, 50, 49, 40, 33, 48, 48, 50, 36, 46, 32, 36, 31, 47, 50, 37, 30, 50], [50, 32, 33, 46, 44, 49, 48, 50, 46, 50, 40, 31, 46, 34, 36, 48, 46, 44, 42, 37, 30, 41, 45, 39, 32, 35, 38, 30, 49, 46, 49, 44, 32, 47, 32, 48, 40, 47, 37, 47, 48, 46, 33, 30, 34, 44, 49, 32, 32, 33]], [[0, 0, 0, 0, 0, 0, 0, 0, 0, 0, 0, 0, 0, 0, 0, 0, 0, 0, 0, 0, 0, 0, 0, 0, 0, 0, 0, 0, 0, 0, 0, 0, 0, 0, 0, 0, 0, 0, 0, 0, 0, 0, 0, 0, 0, 0, 0, 0, 0, 0], [0, 0, 0, 0, 0, 0, 0, 0, 0, 0, 0, 0, 0, 0, 0, 0, 0, 0, 0, 0, 0, 0, 0, 0, 0, 0, 0, 0, 0, 0, 0, 0, 0, 0, 0, 0, 0, 0, 0, 0, 0, 0, 0, 0, 0, 0, 0, 0, 0, 0], [0, 0, 0, 0, 0, 0, 0, 0, 0, 0, 0, 0, 0, 0, 0, 0, 0, 0, 0, 0, 0, 0, 0, 0, 0, 0, 0, 0, 0, 0, 0, 0, 0, 0, 0, 0, 0, 0, 0, 0, 0, 0, 0, 0, 0, 0, 0, 0, 0, 0], [0, 0, 0, 0, 0, 0, 0, 0, 0, 0, 0, 0, 0, 0, 0, 0, 0, 0, 0, 0, 0, 0, 0, 0, 0, 0, 0, 0, 0, 0, 0, 0, 0, 0, 0, 0, 0, 0, 0, 0, 0, 0, 0, 0, 0, 0, 0, 0, 0, 0], [0, 0, 0, 0, 0, 0, 0, 0, 0, 0, 0, 0, 0, 0, 0, 0, 0, 0, 0, 0, 0, 0, 0, 0, 0, 0, 0, 0, 0, 0, 0, 0, 0, 0, 0, 0, 0, 0, 0, 0, 0, 0, 0, 0, 0, 0, 0, 0, 0, 0], [0, 0, 0, 0, 0, 0, 0, 0, 0, 0, 0, 0, 0, 0, 0, 0, 0, 0, 0, 0, 0, 0, 0, 0, 0, 0, 0, 0, 0, 0, 0, 0, 0, 0, 0, 0, 0, 0, 0, 0, 0, 0, 0, 0, 0, 0, 0, 0, 0, 0], [0, 0, 0, 0, 0, 0, 0, 0, 0, 0, 0, 0, 0, 0, 0, 0, 0, 0, 0, 0, 0, 0, 0, 0, 0, 0, 0, 0, 0, 0, 0, 0, 0, 0, 0, 0, 0, 0, 0, 0, 0, 0, 0, 0, 0, 0, 0, 0, 0, 0], [50, 49, 32, 34, 41, 36, 45, 46, 42, 36, 34, 37, 43, 44, 48, 34, 48, 42, 38, 39, 39, 40, 44, 34, 32, 46, 34, 34, 48, 46, 42, 46, 33, 31, 32, 38, 39, 36, 49, 31, 30, 46, 50, 33, 31, 34, 40, 34, 43, 50], [42, 42, 47, 46, 44, 40, 50, 49, 41, 40, 30, 50, 49, 34, 35, 45, 37, 49, 33, 35, 36, 36, 44, 42, 45, 45, 37, 46, 44, 37, 46, 37, 30, 46, 45, 46, 30, 40, 48, 41, 50, 47, 39, 42, 47, 40, 44, 49, 32, 37], [44, 34, 40, 31, 46, 44, 44, 41, 49, 50, 47, 44, 32, 37, 34, 32, 33, 47, 45, 35, 43, 38, 42, 50, 32, 48, 37, 44, 49, 38, 30, 38, 33, 44, 33, 32, 50, 40, 45, 36, 38, 45, 33, 37, 40, 37, 32, 48, 48, 32]], [[0, 0, 0, 0, 0, 0, 0, 0, 0, 0, 0, 0, 0, 0, 0, 0, 0, 0, 0, 0, 0, 0, 0, 0, 0, 0, 0, 0, 0, 0, 0, 0, 0, 0, 0, 0, 0, 0, 0, 0, 0, 0, 0, 0, 0, 0, 0, 0, 0, 0], [0, 0, 0, 0, 0, 0, 0, 0, 0, 0, 0, 0, 0, 0, 0, 0, 0, 0, 0, 0, 0, 0, 0, 0, 0, 0, 0, 0, 0, 0, 0, 0, 0, 0, 0, 0, 0, 0, 0, 0, 0, 0, 0, 0, 0, 0, 0, 0, 0, 0], [0, 0, 0, 0, 0, 0, 0, 0, 0, 0, 0, 0, 0, 0, 0, 0, 0, 0, 0, 0, 0, 0, 0, 0, 0, 0, 0, 0, 0, 0, 0, 0, 0, 0, 0, 0, 0, 0, 0, 0, 0, 0, 0, 0, 0, 0, 0, 0, 0, 0], [0, 0, 0, 0, 0, 0, 0, 0, 0, 0, 0, 0, 0, 0, 0, 0, 0, 0, 0, 0, 0, 0, 0, 0, 0, 0, 0, 0, 0, 0, 0, 0, 0, 0, 0, 0, 0, 0, 0, 0, 0, 0, 0, 0, 0, 0, 0, 0, 0, 0], [0, 0, 0, 0, 0, 0, 0, 0, 0, 0, 0, 0, 0, 0, 0, 0, 0, 0, 0, 0, 0, 0, 0, 0, 0, 0, 0, 0, 0, 0, 0, 0, 0, 0, 0, 0, 0, 0, 0, 0, 0, 0, 0, 0, 0, 0, 0, 0, 0, 0], [0, 0, 0, 0, 0, 0, 0, 0, 0, 0, 0, 0, 0, 0, 0, 0, 0, 0, 0, 0, 0, 0, 0, 0, 0, 0, 0, 0, 0, 0, 0, 0, 0, 0, 0, 0, 0, 0, 0, 0, 0, 0, 0, 0, 0, 0, 0, 0, 0, 0], [0, 0, 0, 0, 0, 0, 0, 0, 0, 0, 0, 0, 0, 0, 0, 0, 0, 0, 0, 0, 0, 0, 0, 0, 0, 0, 0, 0, 0, 0, 0, 0, 0, 0, 0, 0, 0, 0, 0, 0, 0, 0, 0, 0, 0, 0, 0, 0, 0, 0], [0, 0, 0, 0, 0, 0, 0, 0, 0, 0, 0, 0, 0, 0, 0, 0, 0, 0, 0, 0, 0, 0, 0, 0, 0, 0, 0, 0, 0, 0, 0, 0, 0, 0, 0, 0, 0, 0, 0, 0, 0, 0, 0, 0, 0, 0, 0, 0, 0, 0], [31, 32, 35, 46, 37, 46, 45, 44, 47, 49, 38, 36, 31, 46, 42, 30, 35, 35, 39, 49, 34, 47, 40, 45, 38, 44, 40, 34, 41, 50, 38, 39, 47, 50, 38, 46, 33, 41, 50, 30, 42, 44, 41, 45, 38, 38, 36, 38, 49, 37], [40, 32, 30, 49, 48, 40, 40, 36, 33, 32, 45, 44, 33, 39, 30, 50, 41, 40, 40, 37, 47, 32, 35, 47, 45, 34, 50, 38, 32, 33, 48, 40, 49, 49, 37, 48, 33, 50, 45, 41, 37, 32, 36, 36, 50, 43, 47, 30, 45, 33]], [[0, 0, 0, 0, 0, 0, 0, 0, 0, 0, 0, 0, 0, 0, 0, 0, 0, 0, 0, 0, 0, 0, 0, 0, 0, 0, 0, 0, 0, 0, 0, 0, 0, 0, 0, 0, 0, 0, 0, 0, 0, 0, 0, 0, 0, 0, 0, 0, 0, 0], [0, 0, 0, 0, 0, 0, 0, 0, 0, 0, 0, 0, 0, 0, 0, 0, 0, 0, 0, 0, 0, 0, 0, 0, 0, 0, 0, 0, 0, 0, 0, 0, 0, 0, 0, 0, 0, 0, 0, 0, 0, 0, 0, 0, 0, 0, 0, 0, 0, 0], [0, 0, 0, 0, 0, 0, 0, 0, 0, 0, 0, 0, 0, 0, 0, 0, 0, 0, 0, 0, 0, 0, 0, 0, 0, 0, 0, 0, 0, 0, 0, 0, 0, 0, 0, 0, 0, 0, 0, 0, 0, 0, 0, 0, 0, 0, 0, 0, 0, 0], [0, 0, 0, 0, 0, 0, 0, 0, 0, 0, 0, 0, 0, 0, 0, 0, 0, 0, 0, 0, 0, 0, 0, 0, 0, 0, 0, 0, 0, 0, 0, 0, 0, 0, 0, 0, 0, 0, 0, 0, 0, 0, 0, 0, 0, 0, 0, 0, 0, 0], [0, 0, 0, 0, 0, 0, 0, 0, 0, 0, 0, 0, 0, 0, 0, 0, 0, 0, 0, 0, 0, 0, 0, 0, 0, 0, 0, 0, 0, 0, 0, 0, 0, 0, 0, 0, 0, 0, 0, 0, 0, 0, 0, 0, 0, 0, 0, 0, 0, 0], [0, 0, 0, 0, 0, 0, 0, 0, 0, 0, 0, 0, 0, 0, 0, 0, 0, 0, 0, 0, 0, 0, 0, 0, 0, 0, 0, 0, 0, 0, 0, 0, 0, 0, 0, 0, 0, 0, 0, 0, 0, 0, 0, 0, 0, 0, 0, 0, 0, 0], [0, 0, 0, 0, 0, 0, 0, 0, 0, 0, 0, 0, 0, 0, 0, 0, 0, 0, 0, 0, 0, 0, 0, 0, 0, 0, 0, 0, 0, 0, 0, 0, 0, 0, 0, 0, 0, 0, 0, 0, 0, 0, 0, 0, 0, 0, 0, 0, 0, 0], [0, 0, 0, 0, 0, 0, 0, 0, 0, 0, 0, 0, 0, 0, 0, 0, 0, 0, 0, 0, 0, 0, 0, 0, 0, 0, 0, 0, 0, 0, 0, 0, 0, 0, 0, 0, 0, 0, 0, 0, 0, 0, 0, 0, 0, 0, 0, 0, 0, 0], [0, 0, 0, 0, 0, 0, 0, 0, 0, 0, 0, 0, 0, 0, 0, 0, 0, 0, 0, 0, 0, 0, 0, 0, 0, 0, 0, 0, 0, 0, 0, 0, 0, 0, 0, 0, 0, 0, 0, 0, 0, 0, 0, 0, 0, 0, 0, 0, 0, 0], [32, 33, 47, 40, 42, 34, 32, 45, 44, 39, 43, 33, 32, 40, 40, 42, 48, 32, 40, 31, 48, 44, 38, 33, 45, 33, 30, 32, 45, 38, 39, 43, 38, 45, 36, 44, 49, 36, 41, 46, 49, 44, 42, 33, 50, 39, 45, 41, 32, 38]], [[0, 0, 0, 0, 0, 0, 0, 0, 0, 0, 0, 0, 0, 0, 0, 0, 0, 0, 0, 0, 0, 0, 0, 0, 0, 0, 0, 0, 0, 0, 0, 0, 0, 0, 0, 0, 0, 0, 0, 0, 0, 0, 0, 0, 0, 0, 0, 0, 0, 0], [0, 0, 0, 0, 0, 0, 0, 0, 0, 0, 0, 0, 0, 0, 0, 0, 0, 0, 0, 0, 0, 0, 0, 0, 0, 0, 0, 0, 0, 0, 0, 0, 0, 0, 0, 0, 0, 0, 0, 0, 0, 0, 0, 0, 0, 0, 0, 0, 0, 0], [0, 0, 0, 0, 0, 0, 0, 0, 0, 0, 0, 0, 0, 0, 0, 0, 0, 0, 0, 0, 0, 0, 0, 0, 0, 0, 0, 0, 0, 0, 0, 0, 0, 0, 0, 0, 0, 0, 0, 0, 0, 0, 0, 0, 0, 0, 0, 0, 0, 0], [0, 0, 0, 0, 0, 0, 0, 0, 0, 0, 0, 0, 0, 0, 0, 0, 0, 0, 0, 0, 0, 0, 0, 0, 0, 0, 0, 0, 0, 0, 0, 0, 0, 0, 0, 0, 0, 0, 0, 0, 0, 0, 0, 0, 0, 0, 0, 0, 0, 0], [0, 0, 0, 0, 0, 0, 0, 0, 0, 0, 0, 0, 0, 0, 0, 0, 0, 0, 0, 0, 0, 0, 0, 0, 0, 0, 0, 0, 0, 0, 0, 0, 0, 0, 0, 0, 0, 0, 0, 0, 0, 0, 0, 0, 0, 0, 0, 0, 0, 0], [0, 0, 0, 0, 0, 0, 0, 0, 0, 0, 0, 0, 0, 0, 0, 0, 0, 0, 0, 0, 0, 0, 0, 0, 0, 0, 0, 0, 0, 0, 0, 0, 0, 0, 0, 0, 0, 0, 0, 0, 0, 0, 0, 0, 0, 0, 0, 0, 0, 0], [0, 0, 0, 0, 0, 0, 0, 0, 0, 0, 0, 0, 0, 0, 0, 0, 0, 0, 0, 0, 0, 0, 0, 0, 0, 0, 0, 0, 0, 0, 0, 0, 0, 0, 0, 0, 0, 0, 0, 0, 0, 0, 0, 0, 0, 0, 0, 0, 0, 0], [0, 0, 0, 0, 0, 0, 0, 0, 0, 0, 0, 0, 0, 0, 0, 0, 0, 0, 0, 0, 0, 0, 0, 0, 0, 0, 0, 0, 0, 0, 0, 0, 0, 0, 0, 0, 0, 0, 0, 0, 0, 0, 0, 0, 0, 0, 0, 0, 0, 0], [0, 0, 0, 0, 0, 0, 0, 0, 0, 0, 0, 0, 0, 0, 0, 0, 0, 0, 0, 0, 0, 0, 0, 0, 0, 0, 0, 0, 0, 0, 0, 0, 0, 0, 0, 0, 0, 0, 0, 0, 0, 0, 0, 0, 0, 0, 0, 0, 0, 0], [0, 0, 0, 0, 0, 0, 0, 0, 0, 0, 0, 0, 0, 0, 0, 0, 0, 0, 0, 0, 0, 0, 0, 0, 0, 0, 0, 0, 0, 0, 0, 0, 0, 0, 0, 0, 0, 0, 0, 0, 0, 0, 0, 0, 0, 0, 0, 0, 0, 0]]];

q = [[[20, 111], [16, 108], [7, 115], [12, 113], [15, 109], [19, 120], [9, 114], [23, 122], [10, 117], [15, 116], [20, 109], [23, 116], [20, 116], [20, 119], [9, 116], [16, 113], [5, 106], [16, 110], [14, 125], [8, 114], [19, 108], [18, 116], [23, 106], [13, 106], [12, 105], [17, 110], [6, 109], [14, 106], [14, 116], [19, 125], [21, 122], [20, 114], [11, 121], [12, 120], [20, 121], [24, 112], [7, 120], [18, 109], [11, 115], [15, 112], [22, 123], [6, 118], [7, 114], [6, 115], [8, 110], [9, 113], [17, 109], [16, 106], [24, 112], [18, 110]], [[8, 117], [11, 121], [17, 105], [22, 121], [7, 123], [11, 107], [20, 119], [9, 105], [17, 120], [13, 124], [12, 122], [7, 107], [7, 109], [13, 107], [11, 123], [21, 113], [18, 115], [16, 115], [17, 121], [8, 119], [18, 122], [10, 114], [11, 115], [18, 114], [13, 124], [9, 117], [6, 116], [11, 113], [20, 122], [9, 124], [14, 114], [22, 108], [8, 110], [11, 112], [15, 113], [23, 107], [23, 116], [21, 123], [15, 124], [21, 112], [10, 121], [10, 107], [15, 107], [9, 106], [21, 115], [9, 105], [15, 123], [15, 110], [10, 112], [16, 107]], [[17, 107], [22, 122], [5, 113], [6, 110], [7, 107], [17, 120], [13, 122], [16, 117], [9, 120], [13, 116], [19, 122], [20, 113], [6, 118], [10, 115], [24, 107], [24, 109], [6, 119], [8, 114], [7, 110], [14, 108], [9, 115], [11, 122], [11, 112], [20, 124], [20, 123], [22, 117], [13, 122], [6, 106], [9, 118], [20, 111], [9, 109], [9, 109], [16, 125], [18, 125], [17, 105], [8, 113], [12, 111], [14, 113], [18, 116], [23, 109], [11, 123], [14, 124], [19, 116], [17, 105], [21, 110], [23, 114], [20, 118], [22, 116], [12, 116], [19, 107]], [[25, 109], [13, 122], [9, 106], [21, 108], [10, 114], [15, 122], [15, 108], [20, 120], [6, 108], [21, 109], [17, 123], [11, 111], [6, 107], [8, 113], [14, 109], [23, 121], [11, 107], [22, 123], [14, 119], [18, 110], [20, 105], [17, 114], [16, 120], [23, 114], [16, 105], [11, 110], [7, 118], [23, 112], [8, 120], [21, 105], [6, 116], [6, 113], [5, 111], [22, 108], [12, 107], [21, 113], [18, 121], [18, 110], [10, 125], [21, 122], [8, 114], [23, 111], [23, 119], [15, 108], [20, 122], [8, 114], [24, 107], [20, 107], [7, 113], [12, 108]], [[24, 122], [11, 121], [12, 112], [12, 108], [7, 116], [22, 112], [18, 110], [14, 121], [17, 108], [16, 105], [10, 115], [13, 122], [13, 110], [12, 115], [5, 122], [15, 122], [15, 105], [25, 108], [6, 120], [13, 112], [24, 105], [6, 106], [19, 110], [22, 111], [18, 124], [6, 110], [8, 114], [22, 115], [20, 120], [15, 106], [11, 112], [10, 115], [10, 112], [22, 106], [14, 113], [18, 111], [24, 121], [16, 122], [14, 115], [8, 113], [15, 111], [16, 112], [15, 118], [9, 111], [7, 110], [6, 120], [5, 119], [12, 110], [17, 122], [18, 119]], [[18, 109], [21, 110], [24, 112], [15, 123], [15, 113], [16, 123], [6, 118], [6, 113], [8, 109], [16, 105], [10, 113], [16, 119], [19, 120], [23, 125], [24, 112], [24, 121], [11, 106], [7, 114], [12, 105], [6, 105], [8, 108], [15, 124], [16, 110], [12, 124], [25, 115], [16, 115], [18, 117], [12, 114], [10, 122], [9, 115], [23, 125], [6, 118], [19, 110], [16, 114], [24, 124], [17, 116], [12, 118], [15, 108], [12, 112], [10, 110], [16, 106], [11, 124], [11, 122], [7, 119], [17, 109], [24, 121], [21, 111], [20, 114], [22, 117], [18, 123]], [[8, 119], [20, 119], [16, 117], [19, 125], [16, 112], [18, 121], [24, 107], [10, 110], [20, 121], [19, 107], [17, 121], [19, 116], [13, 105], [18, 117], [8, 115], [21, 106], [8, 122], [15, 110], [12, 120], [14, 116], [6, 105], [20, 108], [15, 115], [13, 124], [22, 116], [12, 123], [17, 120], [15, 111], [21, 105], [23, 122], [8, 108], [22, 109], [17, 121], [7, 105], [14, 118], [24, 121], [22, 125], [22, 120], [19, 112], [7, 109], [19, 115], [17, 114], [17, 113], [14, 123], [8, 114], [17, 108], [15, 118], [21, 106], [14, 109], [8, 115]], [[12, 121], [18, 117], [16, 125], [18, 120], [7, 110], [18, 114], [8, 123], [16, 118], [18, 125], [11, 118], [15, 109], [16, 114], [18, 119], [9, 105], [20, 120], [22, 117], [12, 123], [23, 123], [16, 122], [9, 106], [22, 113], [16, 109], [24, 108], [19, 120], [6, 125], [23, 108], [17, 120], [15, 108], [21, 118], [23, 115], [15, 123], [24, 124], [7, 111], [15, 108], [11, 124], [23, 121], [19, 118], [14, 121], [13, 110], [8, 119], [23, 110], [23, 119], [22, 120], [8, 108], [15, 108], [11, 113], [11, 124], [18, 108], [18, 114], [11, 116]], [[21, 118], [21, 123], [23, 120], [13, 122], [11, 109], [20, 115], [7, 109], [10, 111], [20, 112], [10, 116], [18, 124], [12, 116], [17, 107], [25, 110], [7, 105], [20, 123], [19, 123], [12, 125], [18, 109], [18, 119], [11, 108], [22, 111], [24, 125], [19, 125], [10, 122], [17, 114], [11, 110], [19, 124], [20, 108], [18, 117], [15, 106], [11, 111], [19, 105], [20, 108], [14, 121], [5, 107], [16, 117], [18, 122], [9, 111], [14, 115], [24, 125], [8, 120], [12, 119], [15, 115], [19, 122], [7, 107], [19, 121], [10, 108], [25, 112], [20, 119]], [[12, 121], [18, 109], [16, 106], [10, 119], [19, 105], [19, 108], [16, 115], [8, 123], [13, 124], [24, 125], [8, 116], [19, 105], [6, 106], [8, 108], [11, 105], [23, 117], [10, 121], [11, 109], [22, 121], [16, 110], [14, 110], [17, 125], [9, 125], [17, 106], [22, 108], [9, 120], [12, 116], [7, 125], [23, 111], [10, 108], [5, 119], [24, 125], [6, 108], [18, 118], [17, 107], [18, 116], [20, 118], [6, 107], [16, 107], [6, 123], [10, 116], [5, 122], [23, 116], [10, 108], [19, 118], [8, 106], [7, 112], [13, 109], [22, 111], [6, 111]]];
Q = [[69, 456], [69, 460], [68, 460], [70, 453], [72, 456], [60, 461], [55, 460], [58, 465], [61, 462], [57, 457]];
